p cnf 210 2864
1 2 3 4 5 6 7 8 9 10 11 12 13 14 15 0
-14 -15 0
-13 -14 0
-13 -15 0
-12 -13 0
-12 -14 0
-12 -15 0
-11 -12 0
-11 -13 0
-11 -14 0
-11 -15 0
-10 -11 0
-10 -12 0
-10 -13 0
-10 -14 0
-10 -15 0
-9 -10 0
-9 -11 0
-9 -12 0
-9 -13 0
-9 -14 0
-9 -15 0
-8 -9 0
-8 -10 0
-8 -11 0
-8 -12 0
-8 -13 0
-8 -14 0
-8 -15 0
-7 -8 0
-7 -9 0
-7 -10 0
-7 -11 0
-7 -12 0
-7 -13 0
-7 -14 0
-7 -15 0
-6 -7 0
-6 -8 0
-6 -9 0
-6 -10 0
-6 -11 0
-6 -12 0
-6 -13 0
-6 -14 0
-6 -15 0
-5 -6 0
-5 -7 0
-5 -8 0
-5 -9 0
-5 -10 0
-5 -11 0
-5 -12 0
-5 -13 0
-5 -14 0
-5 -15 0
-4 -5 0
-4 -6 0
-4 -7 0
-4 -8 0
-4 -9 0
-4 -10 0
-4 -11 0
-4 -12 0
-4 -13 0
-4 -14 0
-4 -15 0
-3 -4 0
-3 -5 0
-3 -6 0
-3 -7 0
-3 -8 0
-3 -9 0
-3 -10 0
-3 -11 0
-3 -12 0
-3 -13 0
-3 -14 0
-3 -15 0
-2 -3 0
-2 -4 0
-2 -5 0
-2 -6 0
-2 -7 0
-2 -8 0
-2 -9 0
-2 -10 0
-2 -11 0
-2 -12 0
-2 -13 0
-2 -14 0
-2 -15 0
-1 -2 0
-1 -3 0
-1 -4 0
-1 -5 0
-1 -6 0
-1 -7 0
-1 -8 0
-1 -9 0
-1 -10 0
-1 -11 0
-1 -12 0
-1 -13 0
-1 -14 0
-1 -15 0
16 17 18 19 20 21 22 23 24 25 26 27 28 29 30 0
-29 -30 0
-28 -29 0
-28 -30 0
-27 -28 0
-27 -29 0
-27 -30 0
-26 -27 0
-26 -28 0
-26 -29 0
-26 -30 0
-25 -26 0
-25 -27 0
-25 -28 0
-25 -29 0
-25 -30 0
-24 -25 0
-24 -26 0
-24 -27 0
-24 -28 0
-24 -29 0
-24 -30 0
-23 -24 0
-23 -25 0
-23 -26 0
-23 -27 0
-23 -28 0
-23 -29 0
-23 -30 0
-22 -23 0
-22 -24 0
-22 -25 0
-22 -26 0
-22 -27 0
-22 -28 0
-22 -29 0
-22 -30 0
-21 -22 0
-21 -23 0
-21 -24 0
-21 -25 0
-21 -26 0
-21 -27 0
-21 -28 0
-21 -29 0
-21 -30 0
-20 -21 0
-20 -22 0
-20 -23 0
-20 -24 0
-20 -25 0
-20 -26 0
-20 -27 0
-20 -28 0
-20 -29 0
-20 -30 0
-19 -20 0
-19 -21 0
-19 -22 0
-19 -23 0
-19 -24 0
-19 -25 0
-19 -26 0
-19 -27 0
-19 -28 0
-19 -29 0
-19 -30 0
-18 -19 0
-18 -20 0
-18 -21 0
-18 -22 0
-18 -23 0
-18 -24 0
-18 -25 0
-18 -26 0
-18 -27 0
-18 -28 0
-18 -29 0
-18 -30 0
-17 -18 0
-17 -19 0
-17 -20 0
-17 -21 0
-17 -22 0
-17 -23 0
-17 -24 0
-17 -25 0
-17 -26 0
-17 -27 0
-17 -28 0
-17 -29 0
-17 -30 0
-16 -17 0
-16 -18 0
-16 -19 0
-16 -20 0
-16 -21 0
-16 -22 0
-16 -23 0
-16 -24 0
-16 -25 0
-16 -26 0
-16 -27 0
-16 -28 0
-16 -29 0
-16 -30 0
31 32 33 34 35 36 37 38 39 40 41 42 43 44 45 0
-44 -45 0
-43 -44 0
-43 -45 0
-42 -43 0
-42 -44 0
-42 -45 0
-41 -42 0
-41 -43 0
-41 -44 0
-41 -45 0
-40 -41 0
-40 -42 0
-40 -43 0
-40 -44 0
-40 -45 0
-39 -40 0
-39 -41 0
-39 -42 0
-39 -43 0
-39 -44 0
-39 -45 0
-38 -39 0
-38 -40 0
-38 -41 0
-38 -42 0
-38 -43 0
-38 -44 0
-38 -45 0
-37 -38 0
-37 -39 0
-37 -40 0
-37 -41 0
-37 -42 0
-37 -43 0
-37 -44 0
-37 -45 0
-36 -37 0
-36 -38 0
-36 -39 0
-36 -40 0
-36 -41 0
-36 -42 0
-36 -43 0
-36 -44 0
-36 -45 0
-35 -36 0
-35 -37 0
-35 -38 0
-35 -39 0
-35 -40 0
-35 -41 0
-35 -42 0
-35 -43 0
-35 -44 0
-35 -45 0
-34 -35 0
-34 -36 0
-34 -37 0
-34 -38 0
-34 -39 0
-34 -40 0
-34 -41 0
-34 -42 0
-34 -43 0
-34 -44 0
-34 -45 0
-33 -34 0
-33 -35 0
-33 -36 0
-33 -37 0
-33 -38 0
-33 -39 0
-33 -40 0
-33 -41 0
-33 -42 0
-33 -43 0
-33 -44 0
-33 -45 0
-32 -33 0
-32 -34 0
-32 -35 0
-32 -36 0
-32 -37 0
-32 -38 0
-32 -39 0
-32 -40 0
-32 -41 0
-32 -42 0
-32 -43 0
-32 -44 0
-32 -45 0
-31 -32 0
-31 -33 0
-31 -34 0
-31 -35 0
-31 -36 0
-31 -37 0
-31 -38 0
-31 -39 0
-31 -40 0
-31 -41 0
-31 -42 0
-31 -43 0
-31 -44 0
-31 -45 0
46 47 48 49 50 51 52 53 54 55 56 57 58 59 60 0
-59 -60 0
-58 -59 0
-58 -60 0
-57 -58 0
-57 -59 0
-57 -60 0
-56 -57 0
-56 -58 0
-56 -59 0
-56 -60 0
-55 -56 0
-55 -57 0
-55 -58 0
-55 -59 0
-55 -60 0
-54 -55 0
-54 -56 0
-54 -57 0
-54 -58 0
-54 -59 0
-54 -60 0
-53 -54 0
-53 -55 0
-53 -56 0
-53 -57 0
-53 -58 0
-53 -59 0
-53 -60 0
-52 -53 0
-52 -54 0
-52 -55 0
-52 -56 0
-52 -57 0
-52 -58 0
-52 -59 0
-52 -60 0
-51 -52 0
-51 -53 0
-51 -54 0
-51 -55 0
-51 -56 0
-51 -57 0
-51 -58 0
-51 -59 0
-51 -60 0
-50 -51 0
-50 -52 0
-50 -53 0
-50 -54 0
-50 -55 0
-50 -56 0
-50 -57 0
-50 -58 0
-50 -59 0
-50 -60 0
-49 -50 0
-49 -51 0
-49 -52 0
-49 -53 0
-49 -54 0
-49 -55 0
-49 -56 0
-49 -57 0
-49 -58 0
-49 -59 0
-49 -60 0
-48 -49 0
-48 -50 0
-48 -51 0
-48 -52 0
-48 -53 0
-48 -54 0
-48 -55 0
-48 -56 0
-48 -57 0
-48 -58 0
-48 -59 0
-48 -60 0
-47 -48 0
-47 -49 0
-47 -50 0
-47 -51 0
-47 -52 0
-47 -53 0
-47 -54 0
-47 -55 0
-47 -56 0
-47 -57 0
-47 -58 0
-47 -59 0
-47 -60 0
-46 -47 0
-46 -48 0
-46 -49 0
-46 -50 0
-46 -51 0
-46 -52 0
-46 -53 0
-46 -54 0
-46 -55 0
-46 -56 0
-46 -57 0
-46 -58 0
-46 -59 0
-46 -60 0
61 62 63 64 65 66 67 68 69 70 71 72 73 74 75 0
-74 -75 0
-73 -74 0
-73 -75 0
-72 -73 0
-72 -74 0
-72 -75 0
-71 -72 0
-71 -73 0
-71 -74 0
-71 -75 0
-70 -71 0
-70 -72 0
-70 -73 0
-70 -74 0
-70 -75 0
-69 -70 0
-69 -71 0
-69 -72 0
-69 -73 0
-69 -74 0
-69 -75 0
-68 -69 0
-68 -70 0
-68 -71 0
-68 -72 0
-68 -73 0
-68 -74 0
-68 -75 0
-67 -68 0
-67 -69 0
-67 -70 0
-67 -71 0
-67 -72 0
-67 -73 0
-67 -74 0
-67 -75 0
-66 -67 0
-66 -68 0
-66 -69 0
-66 -70 0
-66 -71 0
-66 -72 0
-66 -73 0
-66 -74 0
-66 -75 0
-65 -66 0
-65 -67 0
-65 -68 0
-65 -69 0
-65 -70 0
-65 -71 0
-65 -72 0
-65 -73 0
-65 -74 0
-65 -75 0
-64 -65 0
-64 -66 0
-64 -67 0
-64 -68 0
-64 -69 0
-64 -70 0
-64 -71 0
-64 -72 0
-64 -73 0
-64 -74 0
-64 -75 0
-63 -64 0
-63 -65 0
-63 -66 0
-63 -67 0
-63 -68 0
-63 -69 0
-63 -70 0
-63 -71 0
-63 -72 0
-63 -73 0
-63 -74 0
-63 -75 0
-62 -63 0
-62 -64 0
-62 -65 0
-62 -66 0
-62 -67 0
-62 -68 0
-62 -69 0
-62 -70 0
-62 -71 0
-62 -72 0
-62 -73 0
-62 -74 0
-62 -75 0
-61 -62 0
-61 -63 0
-61 -64 0
-61 -65 0
-61 -66 0
-61 -67 0
-61 -68 0
-61 -69 0
-61 -70 0
-61 -71 0
-61 -72 0
-61 -73 0
-61 -74 0
-61 -75 0
76 77 78 79 80 81 82 83 84 85 86 87 88 89 90 0
-89 -90 0
-88 -89 0
-88 -90 0
-87 -88 0
-87 -89 0
-87 -90 0
-86 -87 0
-86 -88 0
-86 -89 0
-86 -90 0
-85 -86 0
-85 -87 0
-85 -88 0
-85 -89 0
-85 -90 0
-84 -85 0
-84 -86 0
-84 -87 0
-84 -88 0
-84 -89 0
-84 -90 0
-83 -84 0
-83 -85 0
-83 -86 0
-83 -87 0
-83 -88 0
-83 -89 0
-83 -90 0
-82 -83 0
-82 -84 0
-82 -85 0
-82 -86 0
-82 -87 0
-82 -88 0
-82 -89 0
-82 -90 0
-81 -82 0
-81 -83 0
-81 -84 0
-81 -85 0
-81 -86 0
-81 -87 0
-81 -88 0
-81 -89 0
-81 -90 0
-80 -81 0
-80 -82 0
-80 -83 0
-80 -84 0
-80 -85 0
-80 -86 0
-80 -87 0
-80 -88 0
-80 -89 0
-80 -90 0
-79 -80 0
-79 -81 0
-79 -82 0
-79 -83 0
-79 -84 0
-79 -85 0
-79 -86 0
-79 -87 0
-79 -88 0
-79 -89 0
-79 -90 0
-78 -79 0
-78 -80 0
-78 -81 0
-78 -82 0
-78 -83 0
-78 -84 0
-78 -85 0
-78 -86 0
-78 -87 0
-78 -88 0
-78 -89 0
-78 -90 0
-77 -78 0
-77 -79 0
-77 -80 0
-77 -81 0
-77 -82 0
-77 -83 0
-77 -84 0
-77 -85 0
-77 -86 0
-77 -87 0
-77 -88 0
-77 -89 0
-77 -90 0
-76 -77 0
-76 -78 0
-76 -79 0
-76 -80 0
-76 -81 0
-76 -82 0
-76 -83 0
-76 -84 0
-76 -85 0
-76 -86 0
-76 -87 0
-76 -88 0
-76 -89 0
-76 -90 0
91 92 93 94 95 96 97 98 99 100 101 102 103 104 105 0
-104 -105 0
-103 -104 0
-103 -105 0
-102 -103 0
-102 -104 0
-102 -105 0
-101 -102 0
-101 -103 0
-101 -104 0
-101 -105 0
-100 -101 0
-100 -102 0
-100 -103 0
-100 -104 0
-100 -105 0
-99 -100 0
-99 -101 0
-99 -102 0
-99 -103 0
-99 -104 0
-99 -105 0
-98 -99 0
-98 -100 0
-98 -101 0
-98 -102 0
-98 -103 0
-98 -104 0
-98 -105 0
-97 -98 0
-97 -99 0
-97 -100 0
-97 -101 0
-97 -102 0
-97 -103 0
-97 -104 0
-97 -105 0
-96 -97 0
-96 -98 0
-96 -99 0
-96 -100 0
-96 -101 0
-96 -102 0
-96 -103 0
-96 -104 0
-96 -105 0
-95 -96 0
-95 -97 0
-95 -98 0
-95 -99 0
-95 -100 0
-95 -101 0
-95 -102 0
-95 -103 0
-95 -104 0
-95 -105 0
-94 -95 0
-94 -96 0
-94 -97 0
-94 -98 0
-94 -99 0
-94 -100 0
-94 -101 0
-94 -102 0
-94 -103 0
-94 -104 0
-94 -105 0
-93 -94 0
-93 -95 0
-93 -96 0
-93 -97 0
-93 -98 0
-93 -99 0
-93 -100 0
-93 -101 0
-93 -102 0
-93 -103 0
-93 -104 0
-93 -105 0
-92 -93 0
-92 -94 0
-92 -95 0
-92 -96 0
-92 -97 0
-92 -98 0
-92 -99 0
-92 -100 0
-92 -101 0
-92 -102 0
-92 -103 0
-92 -104 0
-92 -105 0
-91 -92 0
-91 -93 0
-91 -94 0
-91 -95 0
-91 -96 0
-91 -97 0
-91 -98 0
-91 -99 0
-91 -100 0
-91 -101 0
-91 -102 0
-91 -103 0
-91 -104 0
-91 -105 0
106 107 108 109 110 111 112 113 114 115 116 117 118 119 120 0
-119 -120 0
-118 -119 0
-118 -120 0
-117 -118 0
-117 -119 0
-117 -120 0
-116 -117 0
-116 -118 0
-116 -119 0
-116 -120 0
-115 -116 0
-115 -117 0
-115 -118 0
-115 -119 0
-115 -120 0
-114 -115 0
-114 -116 0
-114 -117 0
-114 -118 0
-114 -119 0
-114 -120 0
-113 -114 0
-113 -115 0
-113 -116 0
-113 -117 0
-113 -118 0
-113 -119 0
-113 -120 0
-112 -113 0
-112 -114 0
-112 -115 0
-112 -116 0
-112 -117 0
-112 -118 0
-112 -119 0
-112 -120 0
-111 -112 0
-111 -113 0
-111 -114 0
-111 -115 0
-111 -116 0
-111 -117 0
-111 -118 0
-111 -119 0
-111 -120 0
-110 -111 0
-110 -112 0
-110 -113 0
-110 -114 0
-110 -115 0
-110 -116 0
-110 -117 0
-110 -118 0
-110 -119 0
-110 -120 0
-109 -110 0
-109 -111 0
-109 -112 0
-109 -113 0
-109 -114 0
-109 -115 0
-109 -116 0
-109 -117 0
-109 -118 0
-109 -119 0
-109 -120 0
-108 -109 0
-108 -110 0
-108 -111 0
-108 -112 0
-108 -113 0
-108 -114 0
-108 -115 0
-108 -116 0
-108 -117 0
-108 -118 0
-108 -119 0
-108 -120 0
-107 -108 0
-107 -109 0
-107 -110 0
-107 -111 0
-107 -112 0
-107 -113 0
-107 -114 0
-107 -115 0
-107 -116 0
-107 -117 0
-107 -118 0
-107 -119 0
-107 -120 0
-106 -107 0
-106 -108 0
-106 -109 0
-106 -110 0
-106 -111 0
-106 -112 0
-106 -113 0
-106 -114 0
-106 -115 0
-106 -116 0
-106 -117 0
-106 -118 0
-106 -119 0
-106 -120 0
121 122 123 124 125 126 127 128 129 130 131 132 133 134 135 0
-134 -135 0
-133 -134 0
-133 -135 0
-132 -133 0
-132 -134 0
-132 -135 0
-131 -132 0
-131 -133 0
-131 -134 0
-131 -135 0
-130 -131 0
-130 -132 0
-130 -133 0
-130 -134 0
-130 -135 0
-129 -130 0
-129 -131 0
-129 -132 0
-129 -133 0
-129 -134 0
-129 -135 0
-128 -129 0
-128 -130 0
-128 -131 0
-128 -132 0
-128 -133 0
-128 -134 0
-128 -135 0
-127 -128 0
-127 -129 0
-127 -130 0
-127 -131 0
-127 -132 0
-127 -133 0
-127 -134 0
-127 -135 0
-126 -127 0
-126 -128 0
-126 -129 0
-126 -130 0
-126 -131 0
-126 -132 0
-126 -133 0
-126 -134 0
-126 -135 0
-125 -126 0
-125 -127 0
-125 -128 0
-125 -129 0
-125 -130 0
-125 -131 0
-125 -132 0
-125 -133 0
-125 -134 0
-125 -135 0
-124 -125 0
-124 -126 0
-124 -127 0
-124 -128 0
-124 -129 0
-124 -130 0
-124 -131 0
-124 -132 0
-124 -133 0
-124 -134 0
-124 -135 0
-123 -124 0
-123 -125 0
-123 -126 0
-123 -127 0
-123 -128 0
-123 -129 0
-123 -130 0
-123 -131 0
-123 -132 0
-123 -133 0
-123 -134 0
-123 -135 0
-122 -123 0
-122 -124 0
-122 -125 0
-122 -126 0
-122 -127 0
-122 -128 0
-122 -129 0
-122 -130 0
-122 -131 0
-122 -132 0
-122 -133 0
-122 -134 0
-122 -135 0
-121 -122 0
-121 -123 0
-121 -124 0
-121 -125 0
-121 -126 0
-121 -127 0
-121 -128 0
-121 -129 0
-121 -130 0
-121 -131 0
-121 -132 0
-121 -133 0
-121 -134 0
-121 -135 0
136 137 138 139 140 141 142 143 144 145 146 147 148 149 150 0
-149 -150 0
-148 -149 0
-148 -150 0
-147 -148 0
-147 -149 0
-147 -150 0
-146 -147 0
-146 -148 0
-146 -149 0
-146 -150 0
-145 -146 0
-145 -147 0
-145 -148 0
-145 -149 0
-145 -150 0
-144 -145 0
-144 -146 0
-144 -147 0
-144 -148 0
-144 -149 0
-144 -150 0
-143 -144 0
-143 -145 0
-143 -146 0
-143 -147 0
-143 -148 0
-143 -149 0
-143 -150 0
-142 -143 0
-142 -144 0
-142 -145 0
-142 -146 0
-142 -147 0
-142 -148 0
-142 -149 0
-142 -150 0
-141 -142 0
-141 -143 0
-141 -144 0
-141 -145 0
-141 -146 0
-141 -147 0
-141 -148 0
-141 -149 0
-141 -150 0
-140 -141 0
-140 -142 0
-140 -143 0
-140 -144 0
-140 -145 0
-140 -146 0
-140 -147 0
-140 -148 0
-140 -149 0
-140 -150 0
-139 -140 0
-139 -141 0
-139 -142 0
-139 -143 0
-139 -144 0
-139 -145 0
-139 -146 0
-139 -147 0
-139 -148 0
-139 -149 0
-139 -150 0
-138 -139 0
-138 -140 0
-138 -141 0
-138 -142 0
-138 -143 0
-138 -144 0
-138 -145 0
-138 -146 0
-138 -147 0
-138 -148 0
-138 -149 0
-138 -150 0
-137 -138 0
-137 -139 0
-137 -140 0
-137 -141 0
-137 -142 0
-137 -143 0
-137 -144 0
-137 -145 0
-137 -146 0
-137 -147 0
-137 -148 0
-137 -149 0
-137 -150 0
-136 -137 0
-136 -138 0
-136 -139 0
-136 -140 0
-136 -141 0
-136 -142 0
-136 -143 0
-136 -144 0
-136 -145 0
-136 -146 0
-136 -147 0
-136 -148 0
-136 -149 0
-136 -150 0
151 152 153 154 155 156 157 158 159 160 161 162 163 164 165 0
-164 -165 0
-163 -164 0
-163 -165 0
-162 -163 0
-162 -164 0
-162 -165 0
-161 -162 0
-161 -163 0
-161 -164 0
-161 -165 0
-160 -161 0
-160 -162 0
-160 -163 0
-160 -164 0
-160 -165 0
-159 -160 0
-159 -161 0
-159 -162 0
-159 -163 0
-159 -164 0
-159 -165 0
-158 -159 0
-158 -160 0
-158 -161 0
-158 -162 0
-158 -163 0
-158 -164 0
-158 -165 0
-157 -158 0
-157 -159 0
-157 -160 0
-157 -161 0
-157 -162 0
-157 -163 0
-157 -164 0
-157 -165 0
-156 -157 0
-156 -158 0
-156 -159 0
-156 -160 0
-156 -161 0
-156 -162 0
-156 -163 0
-156 -164 0
-156 -165 0
-155 -156 0
-155 -157 0
-155 -158 0
-155 -159 0
-155 -160 0
-155 -161 0
-155 -162 0
-155 -163 0
-155 -164 0
-155 -165 0
-154 -155 0
-154 -156 0
-154 -157 0
-154 -158 0
-154 -159 0
-154 -160 0
-154 -161 0
-154 -162 0
-154 -163 0
-154 -164 0
-154 -165 0
-153 -154 0
-153 -155 0
-153 -156 0
-153 -157 0
-153 -158 0
-153 -159 0
-153 -160 0
-153 -161 0
-153 -162 0
-153 -163 0
-153 -164 0
-153 -165 0
-152 -153 0
-152 -154 0
-152 -155 0
-152 -156 0
-152 -157 0
-152 -158 0
-152 -159 0
-152 -160 0
-152 -161 0
-152 -162 0
-152 -163 0
-152 -164 0
-152 -165 0
-151 -152 0
-151 -153 0
-151 -154 0
-151 -155 0
-151 -156 0
-151 -157 0
-151 -158 0
-151 -159 0
-151 -160 0
-151 -161 0
-151 -162 0
-151 -163 0
-151 -164 0
-151 -165 0
166 167 168 169 170 171 172 173 174 175 176 177 178 179 180 0
-179 -180 0
-178 -179 0
-178 -180 0
-177 -178 0
-177 -179 0
-177 -180 0
-176 -177 0
-176 -178 0
-176 -179 0
-176 -180 0
-175 -176 0
-175 -177 0
-175 -178 0
-175 -179 0
-175 -180 0
-174 -175 0
-174 -176 0
-174 -177 0
-174 -178 0
-174 -179 0
-174 -180 0
-173 -174 0
-173 -175 0
-173 -176 0
-173 -177 0
-173 -178 0
-173 -179 0
-173 -180 0
-172 -173 0
-172 -174 0
-172 -175 0
-172 -176 0
-172 -177 0
-172 -178 0
-172 -179 0
-172 -180 0
-171 -172 0
-171 -173 0
-171 -174 0
-171 -175 0
-171 -176 0
-171 -177 0
-171 -178 0
-171 -179 0
-171 -180 0
-170 -171 0
-170 -172 0
-170 -173 0
-170 -174 0
-170 -175 0
-170 -176 0
-170 -177 0
-170 -178 0
-170 -179 0
-170 -180 0
-169 -170 0
-169 -171 0
-169 -172 0
-169 -173 0
-169 -174 0
-169 -175 0
-169 -176 0
-169 -177 0
-169 -178 0
-169 -179 0
-169 -180 0
-168 -169 0
-168 -170 0
-168 -171 0
-168 -172 0
-168 -173 0
-168 -174 0
-168 -175 0
-168 -176 0
-168 -177 0
-168 -178 0
-168 -179 0
-168 -180 0
-167 -168 0
-167 -169 0
-167 -170 0
-167 -171 0
-167 -172 0
-167 -173 0
-167 -174 0
-167 -175 0
-167 -176 0
-167 -177 0
-167 -178 0
-167 -179 0
-167 -180 0
-166 -167 0
-166 -168 0
-166 -169 0
-166 -170 0
-166 -171 0
-166 -172 0
-166 -173 0
-166 -174 0
-166 -175 0
-166 -176 0
-166 -177 0
-166 -178 0
-166 -179 0
-166 -180 0
181 182 183 184 185 186 187 188 189 190 191 192 193 194 195 0
-194 -195 0
-193 -194 0
-193 -195 0
-192 -193 0
-192 -194 0
-192 -195 0
-191 -192 0
-191 -193 0
-191 -194 0
-191 -195 0
-190 -191 0
-190 -192 0
-190 -193 0
-190 -194 0
-190 -195 0
-189 -190 0
-189 -191 0
-189 -192 0
-189 -193 0
-189 -194 0
-189 -195 0
-188 -189 0
-188 -190 0
-188 -191 0
-188 -192 0
-188 -193 0
-188 -194 0
-188 -195 0
-187 -188 0
-187 -189 0
-187 -190 0
-187 -191 0
-187 -192 0
-187 -193 0
-187 -194 0
-187 -195 0
-186 -187 0
-186 -188 0
-186 -189 0
-186 -190 0
-186 -191 0
-186 -192 0
-186 -193 0
-186 -194 0
-186 -195 0
-185 -186 0
-185 -187 0
-185 -188 0
-185 -189 0
-185 -190 0
-185 -191 0
-185 -192 0
-185 -193 0
-185 -194 0
-185 -195 0
-184 -185 0
-184 -186 0
-184 -187 0
-184 -188 0
-184 -189 0
-184 -190 0
-184 -191 0
-184 -192 0
-184 -193 0
-184 -194 0
-184 -195 0
-183 -184 0
-183 -185 0
-183 -186 0
-183 -187 0
-183 -188 0
-183 -189 0
-183 -190 0
-183 -191 0
-183 -192 0
-183 -193 0
-183 -194 0
-183 -195 0
-182 -183 0
-182 -184 0
-182 -185 0
-182 -186 0
-182 -187 0
-182 -188 0
-182 -189 0
-182 -190 0
-182 -191 0
-182 -192 0
-182 -193 0
-182 -194 0
-182 -195 0
-181 -182 0
-181 -183 0
-181 -184 0
-181 -185 0
-181 -186 0
-181 -187 0
-181 -188 0
-181 -189 0
-181 -190 0
-181 -191 0
-181 -192 0
-181 -193 0
-181 -194 0
-181 -195 0
196 197 198 199 200 201 202 203 204 205 206 207 208 209 210 0
-209 -210 0
-208 -209 0
-208 -210 0
-207 -208 0
-207 -209 0
-207 -210 0
-206 -207 0
-206 -208 0
-206 -209 0
-206 -210 0
-205 -206 0
-205 -207 0
-205 -208 0
-205 -209 0
-205 -210 0
-204 -205 0
-204 -206 0
-204 -207 0
-204 -208 0
-204 -209 0
-204 -210 0
-203 -204 0
-203 -205 0
-203 -206 0
-203 -207 0
-203 -208 0
-203 -209 0
-203 -210 0
-202 -203 0
-202 -204 0
-202 -205 0
-202 -206 0
-202 -207 0
-202 -208 0
-202 -209 0
-202 -210 0
-201 -202 0
-201 -203 0
-201 -204 0
-201 -205 0
-201 -206 0
-201 -207 0
-201 -208 0
-201 -209 0
-201 -210 0
-200 -201 0
-200 -202 0
-200 -203 0
-200 -204 0
-200 -205 0
-200 -206 0
-200 -207 0
-200 -208 0
-200 -209 0
-200 -210 0
-199 -200 0
-199 -201 0
-199 -202 0
-199 -203 0
-199 -204 0
-199 -205 0
-199 -206 0
-199 -207 0
-199 -208 0
-199 -209 0
-199 -210 0
-198 -199 0
-198 -200 0
-198 -201 0
-198 -202 0
-198 -203 0
-198 -204 0
-198 -205 0
-198 -206 0
-198 -207 0
-198 -208 0
-198 -209 0
-198 -210 0
-197 -198 0
-197 -199 0
-197 -200 0
-197 -201 0
-197 -202 0
-197 -203 0
-197 -204 0
-197 -205 0
-197 -206 0
-197 -207 0
-197 -208 0
-197 -209 0
-197 -210 0
-196 -197 0
-196 -198 0
-196 -199 0
-196 -200 0
-196 -201 0
-196 -202 0
-196 -203 0
-196 -204 0
-196 -205 0
-196 -206 0
-196 -207 0
-196 -208 0
-196 -209 0
-196 -210 0
1 16 31 46 61 76 91 106 121 136 151 166 181 196 0
-181 -196 0
-166 -181 0
-166 -196 0
-151 -166 0
-151 -181 0
-151 -196 0
-136 -151 0
-136 -166 0
-136 -181 0
-136 -196 0
-121 -136 0
-121 -151 0
-121 -166 0
-121 -181 0
-121 -196 0
-106 -121 0
-106 -136 0
-106 -151 0
-106 -166 0
-106 -181 0
-106 -196 0
-91 -106 0
-91 -121 0
-91 -136 0
-91 -151 0
-91 -166 0
-91 -181 0
-91 -196 0
-76 -91 0
-76 -106 0
-76 -121 0
-76 -136 0
-76 -151 0
-76 -166 0
-76 -181 0
-76 -196 0
-61 -76 0
-61 -91 0
-61 -106 0
-61 -121 0
-61 -136 0
-61 -151 0
-61 -166 0
-61 -181 0
-61 -196 0
-46 -61 0
-46 -76 0
-46 -91 0
-46 -106 0
-46 -121 0
-46 -136 0
-46 -151 0
-46 -166 0
-46 -181 0
-46 -196 0
-31 -46 0
-31 -61 0
-31 -76 0
-31 -91 0
-31 -106 0
-31 -121 0
-31 -136 0
-31 -151 0
-31 -166 0
-31 -181 0
-31 -196 0
-16 -31 0
-16 -46 0
-16 -61 0
-16 -76 0
-16 -91 0
-16 -106 0
-16 -121 0
-16 -136 0
-16 -151 0
-16 -166 0
-16 -181 0
-16 -196 0
-1 -16 0
-1 -31 0
-1 -46 0
-1 -61 0
-1 -76 0
-1 -91 0
-1 -106 0
-1 -121 0
-1 -136 0
-1 -151 0
-1 -166 0
-1 -181 0
-1 -196 0
2 17 32 47 62 77 92 107 122 137 152 167 182 197 0
-182 -197 0
-167 -182 0
-167 -197 0
-152 -167 0
-152 -182 0
-152 -197 0
-137 -152 0
-137 -167 0
-137 -182 0
-137 -197 0
-122 -137 0
-122 -152 0
-122 -167 0
-122 -182 0
-122 -197 0
-107 -122 0
-107 -137 0
-107 -152 0
-107 -167 0
-107 -182 0
-107 -197 0
-92 -107 0
-92 -122 0
-92 -137 0
-92 -152 0
-92 -167 0
-92 -182 0
-92 -197 0
-77 -92 0
-77 -107 0
-77 -122 0
-77 -137 0
-77 -152 0
-77 -167 0
-77 -182 0
-77 -197 0
-62 -77 0
-62 -92 0
-62 -107 0
-62 -122 0
-62 -137 0
-62 -152 0
-62 -167 0
-62 -182 0
-62 -197 0
-47 -62 0
-47 -77 0
-47 -92 0
-47 -107 0
-47 -122 0
-47 -137 0
-47 -152 0
-47 -167 0
-47 -182 0
-47 -197 0
-32 -47 0
-32 -62 0
-32 -77 0
-32 -92 0
-32 -107 0
-32 -122 0
-32 -137 0
-32 -152 0
-32 -167 0
-32 -182 0
-32 -197 0
-17 -32 0
-17 -47 0
-17 -62 0
-17 -77 0
-17 -92 0
-17 -107 0
-17 -122 0
-17 -137 0
-17 -152 0
-17 -167 0
-17 -182 0
-17 -197 0
-2 -17 0
-2 -32 0
-2 -47 0
-2 -62 0
-2 -77 0
-2 -92 0
-2 -107 0
-2 -122 0
-2 -137 0
-2 -152 0
-2 -167 0
-2 -182 0
-2 -197 0
3 18 33 48 63 78 93 108 123 138 153 168 183 198 0
-183 -198 0
-168 -183 0
-168 -198 0
-153 -168 0
-153 -183 0
-153 -198 0
-138 -153 0
-138 -168 0
-138 -183 0
-138 -198 0
-123 -138 0
-123 -153 0
-123 -168 0
-123 -183 0
-123 -198 0
-108 -123 0
-108 -138 0
-108 -153 0
-108 -168 0
-108 -183 0
-108 -198 0
-93 -108 0
-93 -123 0
-93 -138 0
-93 -153 0
-93 -168 0
-93 -183 0
-93 -198 0
-78 -93 0
-78 -108 0
-78 -123 0
-78 -138 0
-78 -153 0
-78 -168 0
-78 -183 0
-78 -198 0
-63 -78 0
-63 -93 0
-63 -108 0
-63 -123 0
-63 -138 0
-63 -153 0
-63 -168 0
-63 -183 0
-63 -198 0
-48 -63 0
-48 -78 0
-48 -93 0
-48 -108 0
-48 -123 0
-48 -138 0
-48 -153 0
-48 -168 0
-48 -183 0
-48 -198 0
-33 -48 0
-33 -63 0
-33 -78 0
-33 -93 0
-33 -108 0
-33 -123 0
-33 -138 0
-33 -153 0
-33 -168 0
-33 -183 0
-33 -198 0
-18 -33 0
-18 -48 0
-18 -63 0
-18 -78 0
-18 -93 0
-18 -108 0
-18 -123 0
-18 -138 0
-18 -153 0
-18 -168 0
-18 -183 0
-18 -198 0
-3 -18 0
-3 -33 0
-3 -48 0
-3 -63 0
-3 -78 0
-3 -93 0
-3 -108 0
-3 -123 0
-3 -138 0
-3 -153 0
-3 -168 0
-3 -183 0
-3 -198 0
4 19 34 49 64 79 94 109 124 139 154 169 184 199 0
-184 -199 0
-169 -184 0
-169 -199 0
-154 -169 0
-154 -184 0
-154 -199 0
-139 -154 0
-139 -169 0
-139 -184 0
-139 -199 0
-124 -139 0
-124 -154 0
-124 -169 0
-124 -184 0
-124 -199 0
-109 -124 0
-109 -139 0
-109 -154 0
-109 -169 0
-109 -184 0
-109 -199 0
-94 -109 0
-94 -124 0
-94 -139 0
-94 -154 0
-94 -169 0
-94 -184 0
-94 -199 0
-79 -94 0
-79 -109 0
-79 -124 0
-79 -139 0
-79 -154 0
-79 -169 0
-79 -184 0
-79 -199 0
-64 -79 0
-64 -94 0
-64 -109 0
-64 -124 0
-64 -139 0
-64 -154 0
-64 -169 0
-64 -184 0
-64 -199 0
-49 -64 0
-49 -79 0
-49 -94 0
-49 -109 0
-49 -124 0
-49 -139 0
-49 -154 0
-49 -169 0
-49 -184 0
-49 -199 0
-34 -49 0
-34 -64 0
-34 -79 0
-34 -94 0
-34 -109 0
-34 -124 0
-34 -139 0
-34 -154 0
-34 -169 0
-34 -184 0
-34 -199 0
-19 -34 0
-19 -49 0
-19 -64 0
-19 -79 0
-19 -94 0
-19 -109 0
-19 -124 0
-19 -139 0
-19 -154 0
-19 -169 0
-19 -184 0
-19 -199 0
-4 -19 0
-4 -34 0
-4 -49 0
-4 -64 0
-4 -79 0
-4 -94 0
-4 -109 0
-4 -124 0
-4 -139 0
-4 -154 0
-4 -169 0
-4 -184 0
-4 -199 0
5 20 35 50 65 80 95 110 125 140 155 170 185 200 0
-185 -200 0
-170 -185 0
-170 -200 0
-155 -170 0
-155 -185 0
-155 -200 0
-140 -155 0
-140 -170 0
-140 -185 0
-140 -200 0
-125 -140 0
-125 -155 0
-125 -170 0
-125 -185 0
-125 -200 0
-110 -125 0
-110 -140 0
-110 -155 0
-110 -170 0
-110 -185 0
-110 -200 0
-95 -110 0
-95 -125 0
-95 -140 0
-95 -155 0
-95 -170 0
-95 -185 0
-95 -200 0
-80 -95 0
-80 -110 0
-80 -125 0
-80 -140 0
-80 -155 0
-80 -170 0
-80 -185 0
-80 -200 0
-65 -80 0
-65 -95 0
-65 -110 0
-65 -125 0
-65 -140 0
-65 -155 0
-65 -170 0
-65 -185 0
-65 -200 0
-50 -65 0
-50 -80 0
-50 -95 0
-50 -110 0
-50 -125 0
-50 -140 0
-50 -155 0
-50 -170 0
-50 -185 0
-50 -200 0
-35 -50 0
-35 -65 0
-35 -80 0
-35 -95 0
-35 -110 0
-35 -125 0
-35 -140 0
-35 -155 0
-35 -170 0
-35 -185 0
-35 -200 0
-20 -35 0
-20 -50 0
-20 -65 0
-20 -80 0
-20 -95 0
-20 -110 0
-20 -125 0
-20 -140 0
-20 -155 0
-20 -170 0
-20 -185 0
-20 -200 0
-5 -20 0
-5 -35 0
-5 -50 0
-5 -65 0
-5 -80 0
-5 -95 0
-5 -110 0
-5 -125 0
-5 -140 0
-5 -155 0
-5 -170 0
-5 -185 0
-5 -200 0
6 21 36 51 66 81 96 111 126 141 156 171 186 201 0
-186 -201 0
-171 -186 0
-171 -201 0
-156 -171 0
-156 -186 0
-156 -201 0
-141 -156 0
-141 -171 0
-141 -186 0
-141 -201 0
-126 -141 0
-126 -156 0
-126 -171 0
-126 -186 0
-126 -201 0
-111 -126 0
-111 -141 0
-111 -156 0
-111 -171 0
-111 -186 0
-111 -201 0
-96 -111 0
-96 -126 0
-96 -141 0
-96 -156 0
-96 -171 0
-96 -186 0
-96 -201 0
-81 -96 0
-81 -111 0
-81 -126 0
-81 -141 0
-81 -156 0
-81 -171 0
-81 -186 0
-81 -201 0
-66 -81 0
-66 -96 0
-66 -111 0
-66 -126 0
-66 -141 0
-66 -156 0
-66 -171 0
-66 -186 0
-66 -201 0
-51 -66 0
-51 -81 0
-51 -96 0
-51 -111 0
-51 -126 0
-51 -141 0
-51 -156 0
-51 -171 0
-51 -186 0
-51 -201 0
-36 -51 0
-36 -66 0
-36 -81 0
-36 -96 0
-36 -111 0
-36 -126 0
-36 -141 0
-36 -156 0
-36 -171 0
-36 -186 0
-36 -201 0
-21 -36 0
-21 -51 0
-21 -66 0
-21 -81 0
-21 -96 0
-21 -111 0
-21 -126 0
-21 -141 0
-21 -156 0
-21 -171 0
-21 -186 0
-21 -201 0
-6 -21 0
-6 -36 0
-6 -51 0
-6 -66 0
-6 -81 0
-6 -96 0
-6 -111 0
-6 -126 0
-6 -141 0
-6 -156 0
-6 -171 0
-6 -186 0
-6 -201 0
7 22 37 52 67 82 97 112 127 142 157 172 187 202 0
-187 -202 0
-172 -187 0
-172 -202 0
-157 -172 0
-157 -187 0
-157 -202 0
-142 -157 0
-142 -172 0
-142 -187 0
-142 -202 0
-127 -142 0
-127 -157 0
-127 -172 0
-127 -187 0
-127 -202 0
-112 -127 0
-112 -142 0
-112 -157 0
-112 -172 0
-112 -187 0
-112 -202 0
-97 -112 0
-97 -127 0
-97 -142 0
-97 -157 0
-97 -172 0
-97 -187 0
-97 -202 0
-82 -97 0
-82 -112 0
-82 -127 0
-82 -142 0
-82 -157 0
-82 -172 0
-82 -187 0
-82 -202 0
-67 -82 0
-67 -97 0
-67 -112 0
-67 -127 0
-67 -142 0
-67 -157 0
-67 -172 0
-67 -187 0
-67 -202 0
-52 -67 0
-52 -82 0
-52 -97 0
-52 -112 0
-52 -127 0
-52 -142 0
-52 -157 0
-52 -172 0
-52 -187 0
-52 -202 0
-37 -52 0
-37 -67 0
-37 -82 0
-37 -97 0
-37 -112 0
-37 -127 0
-37 -142 0
-37 -157 0
-37 -172 0
-37 -187 0
-37 -202 0
-22 -37 0
-22 -52 0
-22 -67 0
-22 -82 0
-22 -97 0
-22 -112 0
-22 -127 0
-22 -142 0
-22 -157 0
-22 -172 0
-22 -187 0
-22 -202 0
-7 -22 0
-7 -37 0
-7 -52 0
-7 -67 0
-7 -82 0
-7 -97 0
-7 -112 0
-7 -127 0
-7 -142 0
-7 -157 0
-7 -172 0
-7 -187 0
-7 -202 0
8 23 38 53 68 83 98 113 128 143 158 173 188 203 0
-188 -203 0
-173 -188 0
-173 -203 0
-158 -173 0
-158 -188 0
-158 -203 0
-143 -158 0
-143 -173 0
-143 -188 0
-143 -203 0
-128 -143 0
-128 -158 0
-128 -173 0
-128 -188 0
-128 -203 0
-113 -128 0
-113 -143 0
-113 -158 0
-113 -173 0
-113 -188 0
-113 -203 0
-98 -113 0
-98 -128 0
-98 -143 0
-98 -158 0
-98 -173 0
-98 -188 0
-98 -203 0
-83 -98 0
-83 -113 0
-83 -128 0
-83 -143 0
-83 -158 0
-83 -173 0
-83 -188 0
-83 -203 0
-68 -83 0
-68 -98 0
-68 -113 0
-68 -128 0
-68 -143 0
-68 -158 0
-68 -173 0
-68 -188 0
-68 -203 0
-53 -68 0
-53 -83 0
-53 -98 0
-53 -113 0
-53 -128 0
-53 -143 0
-53 -158 0
-53 -173 0
-53 -188 0
-53 -203 0
-38 -53 0
-38 -68 0
-38 -83 0
-38 -98 0
-38 -113 0
-38 -128 0
-38 -143 0
-38 -158 0
-38 -173 0
-38 -188 0
-38 -203 0
-23 -38 0
-23 -53 0
-23 -68 0
-23 -83 0
-23 -98 0
-23 -113 0
-23 -128 0
-23 -143 0
-23 -158 0
-23 -173 0
-23 -188 0
-23 -203 0
-8 -23 0
-8 -38 0
-8 -53 0
-8 -68 0
-8 -83 0
-8 -98 0
-8 -113 0
-8 -128 0
-8 -143 0
-8 -158 0
-8 -173 0
-8 -188 0
-8 -203 0
9 24 39 54 69 84 99 114 129 144 159 174 189 204 0
-189 -204 0
-174 -189 0
-174 -204 0
-159 -174 0
-159 -189 0
-159 -204 0
-144 -159 0
-144 -174 0
-144 -189 0
-144 -204 0
-129 -144 0
-129 -159 0
-129 -174 0
-129 -189 0
-129 -204 0
-114 -129 0
-114 -144 0
-114 -159 0
-114 -174 0
-114 -189 0
-114 -204 0
-99 -114 0
-99 -129 0
-99 -144 0
-99 -159 0
-99 -174 0
-99 -189 0
-99 -204 0
-84 -99 0
-84 -114 0
-84 -129 0
-84 -144 0
-84 -159 0
-84 -174 0
-84 -189 0
-84 -204 0
-69 -84 0
-69 -99 0
-69 -114 0
-69 -129 0
-69 -144 0
-69 -159 0
-69 -174 0
-69 -189 0
-69 -204 0
-54 -69 0
-54 -84 0
-54 -99 0
-54 -114 0
-54 -129 0
-54 -144 0
-54 -159 0
-54 -174 0
-54 -189 0
-54 -204 0
-39 -54 0
-39 -69 0
-39 -84 0
-39 -99 0
-39 -114 0
-39 -129 0
-39 -144 0
-39 -159 0
-39 -174 0
-39 -189 0
-39 -204 0
-24 -39 0
-24 -54 0
-24 -69 0
-24 -84 0
-24 -99 0
-24 -114 0
-24 -129 0
-24 -144 0
-24 -159 0
-24 -174 0
-24 -189 0
-24 -204 0
-9 -24 0
-9 -39 0
-9 -54 0
-9 -69 0
-9 -84 0
-9 -99 0
-9 -114 0
-9 -129 0
-9 -144 0
-9 -159 0
-9 -174 0
-9 -189 0
-9 -204 0
10 25 40 55 70 85 100 115 130 145 160 175 190 205 0
-190 -205 0
-175 -190 0
-175 -205 0
-160 -175 0
-160 -190 0
-160 -205 0
-145 -160 0
-145 -175 0
-145 -190 0
-145 -205 0
-130 -145 0
-130 -160 0
-130 -175 0
-130 -190 0
-130 -205 0
-115 -130 0
-115 -145 0
-115 -160 0
-115 -175 0
-115 -190 0
-115 -205 0
-100 -115 0
-100 -130 0
-100 -145 0
-100 -160 0
-100 -175 0
-100 -190 0
-100 -205 0
-85 -100 0
-85 -115 0
-85 -130 0
-85 -145 0
-85 -160 0
-85 -175 0
-85 -190 0
-85 -205 0
-70 -85 0
-70 -100 0
-70 -115 0
-70 -130 0
-70 -145 0
-70 -160 0
-70 -175 0
-70 -190 0
-70 -205 0
-55 -70 0
-55 -85 0
-55 -100 0
-55 -115 0
-55 -130 0
-55 -145 0
-55 -160 0
-55 -175 0
-55 -190 0
-55 -205 0
-40 -55 0
-40 -70 0
-40 -85 0
-40 -100 0
-40 -115 0
-40 -130 0
-40 -145 0
-40 -160 0
-40 -175 0
-40 -190 0
-40 -205 0
-25 -40 0
-25 -55 0
-25 -70 0
-25 -85 0
-25 -100 0
-25 -115 0
-25 -130 0
-25 -145 0
-25 -160 0
-25 -175 0
-25 -190 0
-25 -205 0
-10 -25 0
-10 -40 0
-10 -55 0
-10 -70 0
-10 -85 0
-10 -100 0
-10 -115 0
-10 -130 0
-10 -145 0
-10 -160 0
-10 -175 0
-10 -190 0
-10 -205 0
11 26 41 56 71 86 101 116 131 146 161 176 191 206 0
-191 -206 0
-176 -191 0
-176 -206 0
-161 -176 0
-161 -191 0
-161 -206 0
-146 -161 0
-146 -176 0
-146 -191 0
-146 -206 0
-131 -146 0
-131 -161 0
-131 -176 0
-131 -191 0
-131 -206 0
-116 -131 0
-116 -146 0
-116 -161 0
-116 -176 0
-116 -191 0
-116 -206 0
-101 -116 0
-101 -131 0
-101 -146 0
-101 -161 0
-101 -176 0
-101 -191 0
-101 -206 0
-86 -101 0
-86 -116 0
-86 -131 0
-86 -146 0
-86 -161 0
-86 -176 0
-86 -191 0
-86 -206 0
-71 -86 0
-71 -101 0
-71 -116 0
-71 -131 0
-71 -146 0
-71 -161 0
-71 -176 0
-71 -191 0
-71 -206 0
-56 -71 0
-56 -86 0
-56 -101 0
-56 -116 0
-56 -131 0
-56 -146 0
-56 -161 0
-56 -176 0
-56 -191 0
-56 -206 0
-41 -56 0
-41 -71 0
-41 -86 0
-41 -101 0
-41 -116 0
-41 -131 0
-41 -146 0
-41 -161 0
-41 -176 0
-41 -191 0
-41 -206 0
-26 -41 0
-26 -56 0
-26 -71 0
-26 -86 0
-26 -101 0
-26 -116 0
-26 -131 0
-26 -146 0
-26 -161 0
-26 -176 0
-26 -191 0
-26 -206 0
-11 -26 0
-11 -41 0
-11 -56 0
-11 -71 0
-11 -86 0
-11 -101 0
-11 -116 0
-11 -131 0
-11 -146 0
-11 -161 0
-11 -176 0
-11 -191 0
-11 -206 0
12 27 42 57 72 87 102 117 132 147 162 177 192 207 0
-192 -207 0
-177 -192 0
-177 -207 0
-162 -177 0
-162 -192 0
-162 -207 0
-147 -162 0
-147 -177 0
-147 -192 0
-147 -207 0
-132 -147 0
-132 -162 0
-132 -177 0
-132 -192 0
-132 -207 0
-117 -132 0
-117 -147 0
-117 -162 0
-117 -177 0
-117 -192 0
-117 -207 0
-102 -117 0
-102 -132 0
-102 -147 0
-102 -162 0
-102 -177 0
-102 -192 0
-102 -207 0
-87 -102 0
-87 -117 0
-87 -132 0
-87 -147 0
-87 -162 0
-87 -177 0
-87 -192 0
-87 -207 0
-72 -87 0
-72 -102 0
-72 -117 0
-72 -132 0
-72 -147 0
-72 -162 0
-72 -177 0
-72 -192 0
-72 -207 0
-57 -72 0
-57 -87 0
-57 -102 0
-57 -117 0
-57 -132 0
-57 -147 0
-57 -162 0
-57 -177 0
-57 -192 0
-57 -207 0
-42 -57 0
-42 -72 0
-42 -87 0
-42 -102 0
-42 -117 0
-42 -132 0
-42 -147 0
-42 -162 0
-42 -177 0
-42 -192 0
-42 -207 0
-27 -42 0
-27 -57 0
-27 -72 0
-27 -87 0
-27 -102 0
-27 -117 0
-27 -132 0
-27 -147 0
-27 -162 0
-27 -177 0
-27 -192 0
-27 -207 0
-12 -27 0
-12 -42 0
-12 -57 0
-12 -72 0
-12 -87 0
-12 -102 0
-12 -117 0
-12 -132 0
-12 -147 0
-12 -162 0
-12 -177 0
-12 -192 0
-12 -207 0
13 28 43 58 73 88 103 118 133 148 163 178 193 208 0
-193 -208 0
-178 -193 0
-178 -208 0
-163 -178 0
-163 -193 0
-163 -208 0
-148 -163 0
-148 -178 0
-148 -193 0
-148 -208 0
-133 -148 0
-133 -163 0
-133 -178 0
-133 -193 0
-133 -208 0
-118 -133 0
-118 -148 0
-118 -163 0
-118 -178 0
-118 -193 0
-118 -208 0
-103 -118 0
-103 -133 0
-103 -148 0
-103 -163 0
-103 -178 0
-103 -193 0
-103 -208 0
-88 -103 0
-88 -118 0
-88 -133 0
-88 -148 0
-88 -163 0
-88 -178 0
-88 -193 0
-88 -208 0
-73 -88 0
-73 -103 0
-73 -118 0
-73 -133 0
-73 -148 0
-73 -163 0
-73 -178 0
-73 -193 0
-73 -208 0
-58 -73 0
-58 -88 0
-58 -103 0
-58 -118 0
-58 -133 0
-58 -148 0
-58 -163 0
-58 -178 0
-58 -193 0
-58 -208 0
-43 -58 0
-43 -73 0
-43 -88 0
-43 -103 0
-43 -118 0
-43 -133 0
-43 -148 0
-43 -163 0
-43 -178 0
-43 -193 0
-43 -208 0
-28 -43 0
-28 -58 0
-28 -73 0
-28 -88 0
-28 -103 0
-28 -118 0
-28 -133 0
-28 -148 0
-28 -163 0
-28 -178 0
-28 -193 0
-28 -208 0
-13 -28 0
-13 -43 0
-13 -58 0
-13 -73 0
-13 -88 0
-13 -103 0
-13 -118 0
-13 -133 0
-13 -148 0
-13 -163 0
-13 -178 0
-13 -193 0
-13 -208 0
14 29 44 59 74 89 104 119 134 149 164 179 194 209 0
-194 -209 0
-179 -194 0
-179 -209 0
-164 -179 0
-164 -194 0
-164 -209 0
-149 -164 0
-149 -179 0
-149 -194 0
-149 -209 0
-134 -149 0
-134 -164 0
-134 -179 0
-134 -194 0
-134 -209 0
-119 -134 0
-119 -149 0
-119 -164 0
-119 -179 0
-119 -194 0
-119 -209 0
-104 -119 0
-104 -134 0
-104 -149 0
-104 -164 0
-104 -179 0
-104 -194 0
-104 -209 0
-89 -104 0
-89 -119 0
-89 -134 0
-89 -149 0
-89 -164 0
-89 -179 0
-89 -194 0
-89 -209 0
-74 -89 0
-74 -104 0
-74 -119 0
-74 -134 0
-74 -149 0
-74 -164 0
-74 -179 0
-74 -194 0
-74 -209 0
-59 -74 0
-59 -89 0
-59 -104 0
-59 -119 0
-59 -134 0
-59 -149 0
-59 -164 0
-59 -179 0
-59 -194 0
-59 -209 0
-44 -59 0
-44 -74 0
-44 -89 0
-44 -104 0
-44 -119 0
-44 -134 0
-44 -149 0
-44 -164 0
-44 -179 0
-44 -194 0
-44 -209 0
-29 -44 0
-29 -59 0
-29 -74 0
-29 -89 0
-29 -104 0
-29 -119 0
-29 -134 0
-29 -149 0
-29 -164 0
-29 -179 0
-29 -194 0
-29 -209 0
-14 -29 0
-14 -44 0
-14 -59 0
-14 -74 0
-14 -89 0
-14 -104 0
-14 -119 0
-14 -134 0
-14 -149 0
-14 -164 0
-14 -179 0
-14 -194 0
-14 -209 0
15 30 45 60 75 90 105 120 135 150 165 180 195 210 0
-195 -210 0
-180 -195 0
-180 -210 0
-165 -180 0
-165 -195 0
-165 -210 0
-150 -165 0
-150 -180 0
-150 -195 0
-150 -210 0
-135 -150 0
-135 -165 0
-135 -180 0
-135 -195 0
-135 -210 0
-120 -135 0
-120 -150 0
-120 -165 0
-120 -180 0
-120 -195 0
-120 -210 0
-105 -120 0
-105 -135 0
-105 -150 0
-105 -165 0
-105 -180 0
-105 -195 0
-105 -210 0
-90 -105 0
-90 -120 0
-90 -135 0
-90 -150 0
-90 -165 0
-90 -180 0
-90 -195 0
-90 -210 0
-75 -90 0
-75 -105 0
-75 -120 0
-75 -135 0
-75 -150 0
-75 -165 0
-75 -180 0
-75 -195 0
-75 -210 0
-60 -75 0
-60 -90 0
-60 -105 0
-60 -120 0
-60 -135 0
-60 -150 0
-60 -165 0
-60 -180 0
-60 -195 0
-60 -210 0
-45 -60 0
-45 -75 0
-45 -90 0
-45 -105 0
-45 -120 0
-45 -135 0
-45 -150 0
-45 -165 0
-45 -180 0
-45 -195 0
-45 -210 0
-30 -45 0
-30 -60 0
-30 -75 0
-30 -90 0
-30 -105 0
-30 -120 0
-30 -135 0
-30 -150 0
-30 -165 0
-30 -180 0
-30 -195 0
-30 -210 0
-15 -30 0
-15 -45 0
-15 -60 0
-15 -75 0
-15 -90 0
-15 -105 0
-15 -120 0
-15 -135 0
-15 -150 0
-15 -165 0
-15 -180 0
-15 -195 0
-15 -210 0
